NAME : P-n19-k2
COMMENT : (Augerat et al, No of trucks: 2, Optimal value: 212)
TYPE : CVRP
DIMENSION : 19
EDGE_WEIGHT_TYPE : EUC_2D
CAPACITY : 160
NODE_COORD_SECTION
1 30 40
2 37 52
3 49 43
4 52 64
5 31 62
6 52 33
7 42 41
8 52 41
9 57 58
10 62 42
11 42 57
12 27 68
13 43 67
14 58 27
15 37 69
16 61 33
17 62 63
18 63 69
19 45 35
DEMAND_SECTION
1 0
2 19
3 30
4 16
5 23
6 11
7 31
8 15
9 28
10 14
11 8
12 7
13 14
14 19
15 11
16 26
17 17
18 6
19 15
DEPOT_SECTION
 1
 -1
EOF
